p cnf 123 349
a 6 9 11 0
d 1 6 0
d 2 9 0
d 4 11 0
d 3 6 9 0
d 5 6 9 11 0
d 7 6 0
d 8 6 9 11 0
d 10 6 9 11 0
d 12 6 9 11 0
d 13 11 0
d 14 6 9 11 0
d 15 6 9 11 0
d 16 6 9 11 0
d 17 6 9 11 0
d 18 6 9 11 0
d 19 6 0
d 20 9 0
d 21 6 9 0
d 22 6 9 11 0
d 23 6 9 11 0
d 24 6 9 11 0
d 25 6 9 11 0
d 26 6 9 11 0
d 27 6 9 0
d 28 6 9 11 0
d 29 6 9 11 0
d 30 9 0
d 31 6 9 11 0
d 32 6 9 11 0
d 33 6 9 11 0
d 34 6 9 11 0
d 35 6 9 11 0
d 36 6 9 11 0
d 37 6 9 11 0
d 38 6 9 0
d 39 6 9 11 0
d 40 6 9 11 0
d 41 6 9 11 0
d 42 6 9 11 0
d 43 6 9 11 0
d 44 6 9 11 0
d 45 6 9 11 0
d 46 6 9 11 0
d 47 6 9 11 0
d 48 6 9 11 0
d 49 6 9 11 0
d 50 6 9 11 0
d 51 6 9 11 0
d 52 6 9 11 0
d 53 6 9 11 0
d 54 6 9 11 0
d 55 6 9 11 0
d 56 6 9 11 0
d 57 6 9 11 0
d 58 6 9 11 0
d 59 6 9 11 0
d 60 6 9 11 0
d 61 6 9 11 0
d 62 6 9 11 0
d 63 6 9 11 0
d 64 6 9 11 0
d 65 6 9 11 0
d 66 6 9 11 0
d 67 6 9 11 0
d 68 6 9 11 0
d 69 6 9 11 0
d 70 6 9 11 0
d 71 6 9 11 0
d 72 6 9 11 0
d 73 11 0
d 74 6 9 11 0
d 75 6 9 11 0
d 76 6 9 11 0
d 77 6 9 11 0
d 78 6 9 11 0
d 79 6 9 11 0
d 80 6 9 11 0
d 81 6 9 11 0
d 82 6 9 11 0
d 83 6 9 11 0
d 84 6 9 11 0
d 85 6 9 11 0
d 86 6 9 11 0
d 87 6 9 11 0
d 88 6 9 11 0
d 89 6 9 11 0
d 90 6 9 11 0
d 91 6 9 11 0
d 92 6 9 11 0
d 93 6 9 11 0
d 94 6 9 11 0
d 95 6 9 11 0
d 96 6 9 11 0
d 97 6 9 11 0
d 98 6 9 11 0
d 99 6 9 11 0
d 100 6 9 11 0
d 101 6 9 11 0
d 102 6 9 11 0
d 103 6 9 11 0
d 104 6 9 11 0
d 105 6 9 11 0
d 106 6 9 11 0
d 107 6 9 11 0
d 108 6 9 11 0
d 109 6 9 11 0
d 110 6 9 11 0
d 111 6 9 11 0
d 112 6 9 11 0
d 113 6 9 11 0
d 114 6 9 11 0
d 115 6 9 11 0
d 116 6 9 11 0
d 117 6 9 11 0
d 118 6 9 11 0
d 119 6 9 11 0
d 120 6 9 11 0
d 121 6 9 0
d 122 6 9 11 0
d 123 6 9 11 0
-3 1 0
-3 2 0
3 -1 -2 0
-5 3 0
-5 4 0
5 -3 -4 0
7 6 0
-7 -6 0
-8 5 0
-8 7 0
8 -5 -7 0
-10 8 0
-10 9 0
10 -8 -9 0
-12 10 0
-12 11 0
12 -10 -11 0
13 4 0
-13 -4 0
-14 3 0
-14 13 0
14 -3 -13 0
-15 14 0
-15 7 0
15 -14 -7 0
-16 15 0
-16 9 0
16 -15 -9 0
-17 16 0
-17 11 0
17 -16 -11 0
18 -12 0
18 -17 0
-18 12 17 0
19 1 0
-19 -1 0
20 2 0
-20 -2 0
-21 19 0
-21 20 0
21 -19 -20 0
-22 21 0
-22 13 0
22 -21 -13 0
-23 22 0
-23 7 0
23 -22 -7 0
-24 23 0
-24 9 0
24 -23 -9 0
-25 24 0
-25 11 0
25 -24 -11 0
26 -18 0
26 -25 0
-26 18 25 0
-27 1 0
-27 20 0
27 -1 -20 0
-28 27 0
-28 4 0
28 -27 -4 0
-29 28 0
-29 6 0
29 -28 -6 0
30 9 0
-30 -9 0
-31 29 0
-31 30 0
31 -29 -30 0
-32 31 0
-32 11 0
32 -31 -11 0
33 -26 0
33 -32 0
-33 26 32 0
-34 14 0
-34 6 0
34 -14 -6 0
-35 34 0
-35 30 0
35 -34 -30 0
-36 35 0
-36 11 0
36 -35 -11 0
37 -33 0
37 -36 0
-37 33 36 0
-38 19 0
-38 2 0
38 -19 -2 0
-39 38 0
-39 13 0
39 -38 -13 0
-40 39 0
-40 6 0
40 -39 -6 0
-41 40 0
-41 30 0
41 -40 -30 0
-42 41 0
-42 11 0
42 -41 -11 0
43 -37 0
43 -42 0
-43 37 42 0
-44 27 0
-44 13 0
44 -27 -13 0
-45 44 0
-45 6 0
45 -44 -6 0
-46 45 0
-46 30 0
46 -45 -30 0
-47 46 0
-47 11 0
47 -46 -11 0
48 -43 0
48 -47 0
-48 43 47 0
-49 8 0
-49 30 0
49 -8 -30 0
-50 49 0
-50 11 0
50 -49 -11 0
51 -48 0
51 -50 0
-51 48 50 0
-52 28 0
-52 7 0
52 -28 -7 0
-53 52 0
-53 30 0
53 -52 -30 0
-54 53 0
-54 11 0
54 -53 -11 0
55 -51 0
55 -54 0
-55 51 54 0
-56 21 0
-56 4 0
56 -21 -4 0
-57 56 0
-57 7 0
57 -56 -7 0
-58 57 0
-58 30 0
58 -57 -30 0
-59 58 0
-59 11 0
59 -58 -11 0
60 -55 0
60 -59 0
-60 55 59 0
-61 15 0
-61 30 0
61 -15 -30 0
-62 61 0
-62 11 0
62 -61 -11 0
63 -60 0
63 -62 0
-63 60 62 0
-64 44 0
-64 7 0
64 -44 -7 0
-65 64 0
-65 30 0
65 -64 -30 0
-66 65 0
-66 11 0
66 -65 -11 0
67 -63 0
67 -66 0
-67 63 66 0
-68 23 0
-68 30 0
68 -23 -30 0
-69 68 0
-69 11 0
69 -68 -11 0
70 -67 0
70 -69 0
-70 67 69 0
-71 5 0
-71 6 0
71 -5 -6 0
-72 71 0
-72 9 0
72 -71 -9 0
73 11 0
-73 -11 0
-74 72 0
-74 73 0
74 -72 -73 0
75 -70 0
75 -74 0
-75 70 74 0
-76 38 0
-76 4 0
76 -38 -4 0
-77 76 0
-77 6 0
77 -76 -6 0
-78 77 0
-78 9 0
78 -77 -9 0
-79 78 0
-79 73 0
79 -78 -73 0
80 -75 0
80 -79 0
-80 75 79 0
-81 29 0
-81 9 0
81 -29 -9 0
-82 81 0
-82 73 0
82 -81 -73 0
83 -80 0
83 -82 0
-83 80 82 0
-84 34 0
-84 9 0
84 -34 -9 0
-85 84 0
-85 73 0
85 -84 -73 0
86 -83 0
86 -85 0
-86 83 85 0
-87 40 0
-87 9 0
87 -40 -9 0
-88 87 0
-88 73 0
88 -87 -73 0
89 -86 0
89 -88 0
-89 86 88 0
-90 22 0
-90 6 0
90 -22 -6 0
-91 90 0
-91 9 0
91 -90 -9 0
-92 91 0
-92 73 0
92 -91 -73 0
93 -89 0
93 -92 0
-93 89 92 0
-94 10 0
-94 73 0
94 -10 -73 0
95 -93 0
95 -94 0
-95 93 94 0
-96 76 0
-96 7 0
96 -76 -7 0
-97 96 0
-97 9 0
97 -96 -9 0
-98 97 0
-98 73 0
98 -97 -73 0
99 -95 0
99 -98 0
-99 95 98 0
-100 16 0
-100 73 0
100 -16 -73 0
101 -99 0
101 -100 0
-101 99 100 0
-102 24 0
-102 73 0
102 -24 -73 0
103 -101 0
103 -102 0
-103 101 102 0
-104 77 0
-104 30 0
104 -77 -30 0
-105 104 0
-105 73 0
105 -104 -73 0
106 -103 0
106 -105 0
-106 103 105 0
-107 31 0
-107 73 0
107 -31 -73 0
108 -106 0
108 -107 0
-108 106 107 0
-109 41 0
-109 73 0
109 -41 -73 0
110 -108 0
110 -109 0
-110 108 109 0
-111 90 0
-111 30 0
111 -90 -30 0
-112 111 0
-112 73 0
112 -111 -73 0
113 -110 0
113 -112 0
-113 110 112 0
-114 49 0
-114 73 0
114 -49 -73 0
115 -113 0
115 -114 0
-115 113 114 0
-116 96 0
-116 30 0
116 -96 -30 0
-117 116 0
-117 73 0
117 -116 -73 0
118 -115 0
118 -117 0
-118 115 117 0
-119 65 0
-119 73 0
119 -65 -73 0
120 -118 0
120 -119 0
-120 118 119 0
121 -6 9 0
121 6 -9 0
-121 -6 -9 0
-121 6 9 0
122 -121 11 0
122 121 -11 0
-122 -121 -11 0
-122 121 11 0
123 -120 -122 0
123 120 122 0
-123 -120 122 0
-123 120 -122 0
123 0
